n_res = 4;
rc = [ 0, 0, 0, 0 ];
n_tasks = 30;
d = [ 8, 7, 4, 10, 7, 1, 1, 1, 5, 3, 4, 8, 7, 10, 5, 6, 10, 5, 1, 3, 6, 3, 4, 5, 3, 3, 7, 9, 8, 3 ];
rr = [| 0, 0, 0, 0, 0, 0, 0, 0, 0, 0, 0, 0, 0, 0, 0, 0, 0, 0, 0, 0, 0, 0, 0, 0, 0, 0, 0, 0, 0, 0
      | 0, 0, 0, 0, 0, 0, 0, 0, 0, 0, 0, 0, 0, 0, 0, 0, 0, 0, 0, 0, 0, 0, 0, 0, 0, 0, 0, 0, 0, 0
      | 0, 0, 0, 0, 0, 0, 0, 0, 0, 0, 0, 0, 0, 0, 0, 0, 0, 0, 0, 0, 0, 0, 0, 0, 0, 0, 0, 0, 0, 0
      | 0, 0, 0, 0, 0, 0, 0, 0, 0, 0, 0, 0, 0, 0, 0, 0, 0, 0, 0, 0, 0, 0, 0, 0, 0, 0, 0, 0, 0, 0 |];
suc = [ { 7, 8, 9 },
       { 5, 11, 16 },
       { 4, 13, 14 },
       { 6, 10, 12 },
       { 15, 21, 23 },
       { 15, 30 },
       { 12, 17, 21 },
       { 11, 18 },
       { 12, 14, 17 },
       { 19, 21, 26 },
       { 19, 22, 23 },
       { 15, 24, 26 },
       { 16, 18, 22 },
       { 16, 18, 23 },
       { 29 },
       { 20, 27 },
       { 19, 22, 26 },
       { 20, 25 },
       { 20, 24 },
       { 28, 30 },
       { 25 },
       { 24, 29 },
       { 28 },
       { 25 },
       { 27 },
       { 27, 29 },
       { 28, 30 },
       {  },
       {  },
       {  } ];
